30 60
28
5 7 25 33
5 14 25 44
8 14 5 0
4 8 14 47
21 13 9 17
7 11 18 47
11 14 14 33
14 5 4 55
4 5 0 55
18 3 12 30
21 3 9 14
17 11 13 3
11 4 3 33
4 7 5 14
5 4 25 40
6 7 3 23
5 18 9 37
3 5 0 32
3 7 0 21
5 3 7 30
4 18 5 37
4 3 3 30
12 2 18 58
6 2 3 21
5 18 0 37
5 21 0 0
17 3 13 0
3 4 0 28
